GeneratedTests/Random_6/Random_6_11.tsp
NAME: Random_6_11
TYPE: TSP
DIMENSION: 6
EDGE_WEIGHT_TYPE: EUC_2D
NODE_COORD_SECTION
1 0.37120378 11.233184
2 17.911951 9.7875
3 16.631123 15.507919
4 16.42316 12.676329
5 1.845937 8.844782
6 16.236946 17.596302
EOF
