GeneratedTests/Random_6/Random_6_11.txt
NAME: Random_6_11
TYPE: TSP
DIMENSION: 6
EDGE_WEIGHT_TYPE: EUC_2D
NODE_COORD_SECTION
1 15.909096 8.196683
2 1.645708 12.20337
3 9.748148 12.68885
4 9.247542 9.608104
5 4.056989 13.334013
6 2.5378366 13.883329
EOF
